AES/1_4_4/ssaes_r1-20_c4_rw1_e4_f0_k1-20_aes_min_box_aes_mc_bidirectional/ExperimentMinisat_r1_k3cnf_2011-11-18-082637/Result
WARNING: for repeatability, setting FPU to use double precision
============================[ Problem Statistics ]=============================
|                                                                             |
|  Number of variables:           120                                         |
|  Number of clauses:             366                                         |
|  Parse time:                   0.00 s                                       |
|  Eliminated clauses:           0.00 Mb                                      |
|  Simplification time:          0.00 s                                       |
|                                                                             |
=============================[ Search Statistics ]==============================
| Conflicts  |          ORIGINAL         |          LEARNT          | Progress |
|            |    Vars  Clauses Literals |    Limit  Clauses Lit/Cl |          |
================================================================================
===============================================================================
restarts              : 1
conflicts             : 7              (inf /sec)
decisions             : 13             (0.00 % random) (inf /sec)
propagations          : 189            (inf /sec)
conflict literals     : 30             (26.83 % deleted)
Memory used           : 8.00 MB
CPU time              : 0 s

SATISFIABLE
